COMM    DyFeO3 4K controlled STRUCTURE-A S00
! Current global Chi2 (Bragg contrib.) =      2.990    
! Files => DAT-file: sa4k.dat, PCR-file: sa4k_s00
!Job Npr Nph Nba Nex Nsc Nor Dum Iwg Ilo Ias Res Ste Nre Cry Uni Cor Opt Aut
0 5 1 112 0 0 0 1 0 0 1 0 0 0 0 0 0 0 1
!
!Ipr Ppl Ioc Mat Pcr Ls1 Ls2 Ls3 NLI Prf Ins Rpa Sym Hkl Fou Sho Ana
0 0 1 2 2 1 4 0 0 3 0 -1 0 0 0 0 0
!
! Lambda1  Lambda2    Ratio    Bkpos    Wdt    Cthm     muR   AsyLim   Rpolarz  2nd-muR -> Patt# 1
 1.540593 1.544414  1.00000    2.000  5.0000  0.0000  0.0000   40.00    0.0000  0.0000
!
!NCY  Eps  R_at  R_an  R_pr  R_gl     Thmin       Step       Thmax    PSD    Sent0
10 0.20 0.65 0.65 0.65 0.65 20.0000 0.010000 155.0000 0.000 0.000
!
!2Theta/TOF/E(Kev)   Background  for Pattern#  1
        20.9700       504.3220          0.00
        21.8400       521.1560          0.00
        22.6000       545.0184          0.00
        24.3100       513.7733          0.00
        25.4300       506.9463          0.00
        26.4100       515.0598          0.00
        27.7100       503.9393          0.00
        29.2700       493.4399          0.00
        29.5100       474.2178          0.00
        31.3900       488.4575          0.00
        32.4200       493.3338          0.00
        33.4700       569.0292          0.00
        34.7600       467.8225          0.00
        35.3600       471.4345          0.00
        36.3100       473.9773          0.00
        38.6000       447.2415          0.00
        39.6400       446.5107          0.00
        40.6800       433.2603          0.00
        42.0400       440.1081          0.00
        43.4000       459.6209          0.00
        44.7600       448.8079          0.00
        46.2600       436.0975          0.00
        46.8600       470.6812          0.00
        49.0600       459.0594          0.00
        49.8500       422.4990          0.00
        52.2200       432.1831          0.00
        52.8000       430.6144          0.00
        54.8800       449.7276          0.00
        55.2600       422.3394          0.00
        57.2100       428.0067          0.00
        57.3900       429.4675          0.00
        59.2300       427.5360          0.00
        60.6300       447.9778          0.00
        61.2300       413.0933          0.00
        62.8200       415.1252          0.00
        63.9000       428.6915          0.00
        65.2000       420.9559          0.00
        65.4100       417.5145          0.00
        67.4700       440.4215          0.00
        68.5800       418.5649          0.00
        68.9400       439.1320          0.00
        70.2200       423.2094          0.00
        72.2900       408.7809          0.00
        73.1400       427.5194          0.00
        74.2200       422.2658          0.00
        75.7800       438.4240          0.00
        76.9100       427.8011          0.00
        77.5200       434.0715          0.00
        79.1400       432.9156          0.00
        79.8600       459.2975          0.00
        80.8800       423.5045          0.00
        82.6700       427.2083          0.00
        83.1000       434.9934          0.00
        84.9900       449.5746          0.00
        85.5200       434.3540          0.00
        86.8100       433.8993          0.00
        88.2800       428.8121          0.00
        89.0000       437.4489          0.00
        89.9600       436.8383          0.00
        92.0800       427.8092          0.00
        93.2100       431.2182          0.00
        93.6900       445.6350          0.00
        94.6400       445.8661          0.00
        96.2500       438.3869          0.00
        97.6900       440.5045          0.00
        98.1600       443.0475          0.00
        99.8500       457.5095          0.00
       100.9700       459.8831          0.00
       102.1800       442.7122          0.00
       102.7800       429.6460          0.00
       104.5000       439.7553          0.00
       105.3000       441.5350          0.00
       107.0500       458.3273          0.00
       107.4400       462.7899          0.00
       108.7300       482.9160          0.00
       110.7600       461.7626          0.00
       111.2000       454.1822          0.00
       112.5200       459.5044          0.00
       114.1300       457.5093          0.00
       115.6000       465.9374          0.00
       116.8600       472.0793          0.00
       118.3700       483.0521          0.00
       118.9600       478.2422          0.00
       120.7000       488.5563          0.00
       122.2100       457.7656          0.00
       123.1700       454.8125          0.00
       124.7400       454.9180          0.00
       125.2300       474.7139          0.00
       126.0200       467.4358          0.00
       127.6200       463.7320          0.00
       129.1700       482.9714          0.00
       130.3800       465.2910          0.00
       130.6300       472.6391          0.00
       132.1600       452.9983          0.00
       133.0000       444.8180          0.00
       134.8900       486.1687          0.00
       135.4500       459.6748          0.00
       137.0100       492.7203          0.00
       137.6300       496.6025          0.00
       139.6300       465.7171          0.00
       141.7800       468.8735          0.00
       142.4800       465.0516          0.00
       143.9700       490.9264          0.00
       145.0200       483.3466          0.00
       145.8300       498.2853          0.00
       146.9700       499.7655          0.00
       148.7600       491.5453          0.00
       150.3200       492.8895          0.00
       151.1300       470.0509          0.00
       151.6300       441.6388          0.00
       153.7800       489.2170          0.00
       154.0900       479.1546          0.00
0    !Number of refined parameters
!
!  Zero    Code    SyCos    Code   SySin    Code  Lambda     Code MORE ->Patt# 1
0.00000 0.0 0.00000 0.0 0.00000 0.0 1.541800 0.00 0
!-------------------------------------------------------------------------------
!  Data for PHASE number:   1  ==> Current R_Bragg for Pattern#  1:    25.12
!-------------------------------------------------------------------------------
DyFeO3, 1.5418 A
!
!Nat Dis Ang Pr1 Pr2 Pr3 Jbt Irf Isy Str Furth       ATZ    Nvk Npr More
   4   0   0 0.0 0.0 1.0   0   0   0   0   0       1065.381   0   5   0
!
!
P b n m                  <--Space group symbol
!Atom   Typ       X        Y        Z     Biso       Occ     In Fin N_t Spc /Codes
Dy     DY     -0.02615  0.06800  0.25000  0.00296   0.50000   0   0   0    0  
0.00 0.00 0.00 0.00 0.00
Fe     FE      0.00000  0.50000  0.00000  0.00296   0.50000   0   0   0    0  
0.00 0.00 0.00 0.00 0.00
O1     O       0.11990  0.39815  0.25000  0.00296   0.50000   0   0   0    0  
0.00 0.00 0.00 0.00 0.00
O2     O       0.71738  0.31370  0.07101  0.00296   1.00000   0   0   0    0  
0.00 0.00 0.00 0.00 0.00
!-------> Profile Parameters for Pattern #  1
!  Scale        Shape1      Bov      Str1      Str2      Str3   Strain-Model
0.12121E-03 0.55518 0.00000 0.00000 0.00000 0.00000 0
0.00 0.00 0.00 0.00 0.00 0.00
!       U         V          W           X          Y        GauSiz   LorSiz Size-Model
   0.571230  -0.435362   0.091108   0.000000   0.000000   0.000000   0.000000    0
0.00 0.00 0.00 0.00 0.00 0.00 0.00
!     a          b         c        alpha      beta       gamma      #Cell Info
   5.295136   5.590551   7.606578  90.000000  90.000000  90.000000   
0.00 0.00 0.00 0.00 0.00 0.00
!  Pref1    Pref2      Asy1     Asy2     Asy3     Asy4  
0.00000 0.00000 0.00000 0.00000 0.00000 0.00000
0.00 0.00 0.00 0.00 0.00 0.00
!  2Th1/TOF1    2Th2/TOF2  Pattern to plot
      20.060     155.000       1
